job_count = 16 ;
duration = [|9, 9, 6|11, 19, 7|14, 4, 4|12, 10, 2|5, 3, 7|23, 7, 6|17, 3, 4|7, 13, 7|23, 9, 1|24, 7, 7|10, 13, 3|20, 17, 7|16, 16, 7|29, 5, 1|29, 14, 3|14, 10, 7|] ;
machine_count = 3 ;
cost = [|16, 25, 47|13, 34, 40|13, 32, 36|14, 24, 47|13, 21, 52|19, 22, 44|10, 36, 47|11, 25, 34|18, 37, 48|12, 23, 52|18, 21, 42|19, 39, 55|11, 23, 34|12, 27, 55|15, 24, 50|16, 33, 49|] ;
deadline = [36, 36, 36, 36, 36, 36, 36, 36, 36, 36, 36, 36, 36, 36, 36, 36] ;
release = [0, 0, 0, 0, 0, 0, 0, 0, 0, 0, 0, 0, 0, 0, 0, 0] ;
resource = [|5, 5, 5|2, 2, 2|7, 7, 7|8, 8, 8|5, 5, 5|9, 9, 9|5, 5, 5|7, 7, 7|5, 5, 5|7, 7, 7|5, 5, 5|8, 8, 8|6, 6, 6|8, 8, 8|4, 4, 4|4, 4, 4|] ;
capacities = [10, 10, 10] ;
